c A SAT instance generated from a 3-CNF formula that had 23 clauses and 7 variables
p cnf 7 23
-4 5 2 0
4 5 3 0
3 -1 7 0
6 7 -1 0
-6 -4 -1 0
-3 -5 -1 0
-4 -1 2 0
6 1 4 0
-3 -5 -6 0
-7 -2 3 0
5 -4 -3 0
-4 -7 -3 0
3 -4 2 0
7 -1 -5 0
6 4 -5 0
-5 6 7 0
-7 6 -3 0
-4 -3 -5 0
7 2 -3 0
2 -1 3 0
-3 1 -7 0
-6 4 -2 0
-2 5 -6 0
